results/res_prop_muc/res_Cimatti_mathsat_cores/QF_UF/NEQ027_size8.smt.smt2.out

real	0m8.119s
user	0m7.545s
sys	0m0.490s
