results/res_prop_muc/res_Cimatti_mathsat_cores/QF_UF/NEQ027_size8.smt.smt2.res
unsat
( _c0
  _c10
  _c100
  _c101
  _c102
  _c103
  _c104
  _c105
  _c107
  _c108
  _c109
  _c11
  _c110
  _c111
  _c112
  _c113
  _c115
  _c116
  _c117
  _c118
  _c119
  _c12
  _c120
  _c121
  _c123
  _c124
  _c125
  _c126
  _c127
  _c128
  _c129
  _c13
  _c130
  _c132
  _c1322
  _c1323
  _c1324
  _c1325
  _c1326
  _c1327
  _c1328
  _c1329
  _c133
  _c134
  _c135
  _c136
  _c137
  _c138
  _c14
  _c140
  _c141
  _c142
  _c143
  _c144
  _c145
  _c146
  _c148
  _c149
  _c15
  _c150
  _c151
  _c152
  _c153
  _c154
  _c156
  _c157
  _c158
  _c159
  _c16
  _c160
  _c161
  _c162
  _c164
  _c165
  _c166
  _c167
  _c168
  _c169
  _c170
  _c172
  _c173
  _c174
  _c175
  _c176
  _c177
  _c178
  _c18
  _c180
  _c181
  _c182
  _c183
  _c184
  _c185
  _c186
  _c188
  _c189
  _c19
  _c190
  _c191
  _c192
  _c193
  _c194
  _c195
  _c1955
  _c1956
  _c1957
  _c1958
  _c1959
  _c1960
  _c1961
  _c1962
  _c1964
  _c1965
  _c1966
  _c1967
  _c1968
  _c1969
  _c197
  _c1970
  _c1971
  _c1973
  _c1974
  _c1975
  _c1976
  _c1977
  _c1978
  _c1979
  _c198
  _c1980
  _c1982
  _c1983
  _c1984
  _c1985
  _c1986
  _c1987
  _c1988
  _c1989
  _c199
  _c1991
  _c1992
  _c1993
  _c1994
  _c1995
  _c1996
  _c1997
  _c1998
  _c2
  _c20
  _c200
  _c2000
  _c2001
  _c2002
  _c2003
  _c2004
  _c2005
  _c2006
  _c2007
  _c2009
  _c201
  _c2010
  _c2011
  _c2012
  _c2013
  _c2014
  _c2015
  _c2016
  _c2018
  _c2019
  _c202
  _c2020
  _c2021
  _c2022
  _c2023
  _c2024
  _c2025
  _c203
  _c205
  _c206
  _c207
  _c208
  _c209
  _c21
  _c210
  _c211
  _c2114
  _c2115
  _c2116
  _c2117
  _c2119
  _c2120
  _c2121
  _c2122
  _c2123
  _c2124
  _c2125
  _c2126
  _c2127
  _c2128
  _c2129
  _c213
  _c2130
  _c2131
  _c2132
  _c2133
  _c2134
  _c2135
  _c2139
  _c214
  _c2140
  _c2141
  _c2143
  _c2144
  _c2145
  _c2146
  _c2147
  _c2148
  _c2149
  _c215
  _c2150
  _c2151
  _c2152
  _c2153
  _c2154
  _c2155
  _c2156
  _c2157
  _c2158
  _c216
  _c2160
  _c2161
  _c2162
  _c2163
  _c2164
  _c2165
  _c2166
  _c2167
  _c2168
  _c2169
  _c217
  _c218
  _c219
  _c22
  _c221
  _c222
  _c223
  _c224
  _c225
  _c226
  _c227
  _c229
  _c23
  _c230
  _c231
  _c232
  _c233
  _c234
  _c235
  _c237
  _c238
  _c239
  _c24
  _c240
  _c241
  _c242
  _c243
  _c245
  _c246
  _c247
  _c248
  _c249
  _c250
  _c251
  _c253
  _c254
  _c255
  _c256
  _c257
  _c258
  _c259
  _c26
  _c260
  _c262
  _c263
  _c264
  _c265
  _c266
  _c267
  _c268
  _c27
  _c270
  _c271
  _c272
  _c273
  _c274
  _c275
  _c276
  _c278
  _c279
  _c28
  _c280
  _c281
  _c2813
  _c2819
  _c282
  _c283
  _c2838
  _c284
  _c286
  _c2865
  _c2868
  _c287
  _c288
  _c289
  _c29
  _c290
  _c291
  _c292
  _c294
  _c295
  _c296
  _c297
  _c298
  _c299
  _c3
  _c30
  _c300
  _c302
  _c303
  _c304
  _c305
  _c306
  _c307
  _c308
  _c31
  _c310
  _c311
  _c313
  _c314
  _c315
  _c316
  _c318
  _c319
  _c32
  _c320
  _c321
  _c322
  _c323
  _c324
  _c325
  _c327
  _c328
  _c329
  _c330
  _c331
  _c332
  _c333
  _c335
  _c336
  _c337
  _c338
  _c339
  _c3394
  _c3395
  _c3396
  _c3397
  _c3399
  _c34
  _c340
  _c3400
  _c3401
  _c341
  _c343
  _c344
  _c345
  _c346
  _c347
  _c348
  _c349
  _c35
  _c351
  _c352
  _c353
  _c354
  _c355
  _c356
  _c357
  _c359
  _c36
  _c360
  _c361
  _c362
  _c363
  _c364
  _c365
  _c367
  _c368
  _c369
  _c37
  _c370
  _c371
  _c372
  _c373
  _c375
  _c376
  _c377
  _c378
  _c379
  _c38
  _c380
  _c381
  _c383
  _c384
  _c385
  _c386
  _c387
  _c388
  _c389
  _c39
  _c390
  _c392
  _c3922
  _c3923
  _c3924
  _c3925
  _c3926
  _c3927
  _c3928
  _c393
  _c3930
  _c3932
  _c3933
  _c3935
  _c3938
  _c3939
  _c394
  _c3940
  _c3941
  _c3942
  _c3946
  _c3947
  _c3949
  _c395
  _c3954
  _c3955
  _c3956
  _c396
  _c3963
  _c397
  _c3970
  _c3979
  _c398
  _c3980
  _c3981
  _c3982
  _c3984
  _c3985
  _c3986
  _c3988
  _c3989
  _c3990
  _c3991
  _c3992
  _c3993
  _c3994
  _c3995
  _c3997
  _c3998
  _c3999
  _c4
  _c40
  _c400
  _c4000
  _c4001
  _c4002
  _c4003
  _c4004
  _c4006
  _c4008
  _c4009
  _c401
  _c4010
  _c4011
  _c4012
  _c4013
  _c4015
  _c4016
  _c4017
  _c4018
  _c4019
  _c402
  _c4020
  _c4021
  _c4022
  _c4024
  _c4025
  _c4026
  _c4027
  _c4028
  _c4029
  _c403
  _c4030
  _c4033
  _c4034
  _c4035
  _c4036
  _c4037
  _c4038
  _c4039
  _c404
  _c4040
  _c405
  _c406
  _c408
  _c409
  _c410
  _c411
  _c412
  _c413
  _c4138
  _c4139
  _c414
  _c4140
  _c4141
  _c4142
  _c4143
  _c4146
  _c4147
  _c4154
  _c4155
  _c4156
  _c4157
  _c416
  _c4164
  _c4165
  _c417
  _c418
  _c4186
  _c419
  _c42
  _c420
  _c421
  _c422
  _c424
  _c425
  _c426
  _c427
  _c428
  _c429
  _c4298
  _c4299
  _c43
  _c430
  _c4300
  _c4301
  _c4302
  _c4303
  _c4304
  _c4305
  _c432
  _c433
  _c434
  _c435
  _c436
  _c437
  _c438
  _c44
  _c440
  _c441
  _c442
  _c443
  _c444
  _c445
  _c446
  _c448
  _c449
  _c45
  _c450
  _c451
  _c452
  _c453
  _c454
  _c455
  _c457
  _c458
  _c459
  _c46
  _c460
  _c461
  _c462
  _c463
  _c465
  _c466
  _c467
  _c468
  _c469
  _c47
  _c470
  _c471
  _c473
  _c474
  _c475
  _c476
  _c477
  _c478
  _c479
  _c48
  _c481
  _c482
  _c483
  _c484
  _c485
  _c486
  _c487
  _c489
  _c490
  _c491
  _c492
  _c493
  _c494
  _c495
  _c497
  _c498
  _c499
  _c5
  _c50
  _c500
  _c501
  _c502
  _c503
  _c505
  _c506
  _c507
  _c508
  _c509
  _c51
  _c510
  _c511
  _c512
  _c52
  _c53
  _c54
  _c5426
  _c5427
  _c5428
  _c5429
  _c5430
  _c5431
  _c5432
  _c5433
  _c5434
  _c5435
  _c5436
  _c5437
  _c5438
  _c5439
  _c5440
  _c5442
  _c5444
  _c5445
  _c5450
  _c5451
  _c5452
  _c5454
  _c5455
  _c5457
  _c5458
  _c5459
  _c5460
  _c5461
  _c5462
  _c5463
  _c5464
  _c5465
  _c5467
  _c5468
  _c5469
  _c5470
  _c5471
  _c5472
  _c5473
  _c5474
  _c5482
  _c5483
  _c5484
  _c5485
  _c5486
  _c5487
  _c5489
  _c5490
  _c5491
  _c5492
  _c5493
  _c5495
  _c5496
  _c5497
  _c5498
  _c5499
  _c55
  _c5501
  _c5502
  _c5503
  _c5504
  _c5505
  _c5507
  _c5508
  _c5509
  _c5510
  _c5511
  _c5513
  _c5514
  _c5515
  _c5516
  _c5517
  _c5519
  _c5520
  _c5521
  _c5522
  _c5523
  _c5525
  _c5538
  _c5539
  _c5540
  _c5541
  _c5542
  _c5545
  _c5546
  _c5547
  _c5548
  _c5549
  _c5551
  _c5552
  _c5553
  _c5554
  _c5557
  _c5558
  _c5559
  _c5560
  _c5561
  _c5563
  _c5564
  _c5565
  _c5566
  _c5569
  _c5570
  _c5571
  _c5572
  _c5575
  _c5594
  _c5595
  _c5596
  _c5597
  _c5598
  _c56
  _c5601
  _c5602
  _c5603
  _c5604
  _c5607
  _c5608
  _c5609
  _c5610
  _c5613
  _c5614
  _c5615
  _c5619
  _c5620
  _c5621
  _c5626
  _c5650
  _c5651
  _c5652
  _c5657
  _c5658
  _c5663
  _c5664
  _c5665
  _c5669
  _c5670
  _c5706
  _c5707
  _c5713
  _c5719
  _c5762
  _c58
  _c59
  _c6
  _c60
  _c61
  _c62
  _c63
  _c64
  _c6403
  _c6404
  _c6405
  _c6406
  _c6407
  _c6408
  _c6409
  _c6410
  _c65
  _c6500
  _c6501
  _c6502
  _c6504
  _c6510
  _c6511
  _c6512
  _c6513
  _c6514
  _c6515
  _c6516
  _c6518
  _c6519
  _c6520
  _c6521
  _c6524
  _c6525
  _c6527
  _c6530
  _c6531
  _c6532
  _c6533
  _c6537
  _c6539
  _c6540
  _c6541
  _c6542
  _c6543
  _c6545
  _c6546
  _c6551
  _c6552
  _c6554
  _c6555
  _c6556
  _c6557
  _c6558
  _c6559
  _c6560
  _c6561
  _c67
  _c68
  _c6803
  _c6804
  _c6805
  _c6806
  _c6807
  _c6808
  _c6809
  _c6810
  _c69
  _c7
  _c70
  _c71
  _c72
  _c73
  _c7412
  _c7421
  _c7430
  _c7439
  _c7448
  _c7457
  _c7466
  _c7475
  _c75
  _c7548
  _c76
  _c77
  _c78
  _c79
  _c8
  _c80
  _c81
  _c8134
  _c8135
  _c8136
  _c8137
  _c8138
  _c8139
  _c8140
  _c8141
  _c8143
  _c8144
  _c8145
  _c8146
  _c8147
  _c8148
  _c8149
  _c8150
  _c8152
  _c8153
  _c8154
  _c8155
  _c8156
  _c8157
  _c8158
  _c8159
  _c8161
  _c8162
  _c8163
  _c8164
  _c8165
  _c8166
  _c8167
  _c8168
  _c8170
  _c8171
  _c8172
  _c8173
  _c8174
  _c8175
  _c8176
  _c8177
  _c8179
  _c8180
  _c8181
  _c8182
  _c8183
  _c8184
  _c8185
  _c8186
  _c8188
  _c8189
  _c8190
  _c8191
  _c8192
  _c8193
  _c8194
  _c8195
  _c8238
  _c8240
  _c8241
  _c8242
  _c8243
  _c8244
  _c8245
  _c8246
  _c8247
  _c8248
  _c8249
  _c8250
  _c8251
  _c8252
  _c8253
  _c8254
  _c8255
  _c8256
  _c8257
  _c8258
  _c8259
  _c8260
  _c8261
  _c8262
  _c8263
  _c8264
  _c8265
  _c8266
  _c8267
  _c83
  _c84
  _c85
  _c86
  _c87
  _c88
  _c89
  _c91
  _c92
  _c93
  _c94
  _c95
  _c96
  _c97
  _c99 )
